(set-logic QF_BV)
(declare-fun _substvar_488_ () (_ BitVec 79))
(declare-fun _substvar_203_ () (_ BitVec 79))
(declare-fun _substvar_376_ () (_ BitVec 79))
(declare-fun _substvar_576_ () Bool)
(declare-fun _substvar_461_ () (_ BitVec 79))
(assert (and true true true true true true true true true true true true true true true true true true true true true true true true true true true true true true true true true true true true true true true true true true true true true true true true true true true true true true true true true true true true true true true true true true true true true true true true true true true true true true true true true true true true true true true true true true true true true true true true true true true true true true true true true true true true true true true true true true true true true true true true true true true true true true true true true true true true true true true true true true true true true true true true true true true true true true true true true true true true (= _substvar_376_ (_ bv0 79)) (ite _substvar_576_ (= _substvar_461_ (_ bv0 79)) (= _substvar_461_ (concat ((_ extract 77 0) _substvar_376_) (_ bv0 1)))) (= _substvar_488_ (concat ((_ extract 77 0) _substvar_461_) (bvxor ((_ extract 78 78) _substvar_461_) ((_ extract 69 69) _substvar_461_)))) (= _substvar_203_ (concat ((_ extract 77 0) _substvar_488_) (_ bv0 1))) true true true true true true true true true true true true true true true true true true true true true true true true true true true true true true true true true true true true true true true true true true true true true true true true true true true true true true true true true true true true true true true true true true true true true true true true true true true true true true true true true true true true true true true true true true true true true true true true true true true true true true true true true true true true true true true true true true true true true true true true true true true true true true true true true true true true (= (or false false false false false false false false false false false false false false false false false false false false false false false (= _substvar_203_ (_ bv0 79)) false false false false) false)))
(check-sat)
(exit)
